
;this file is automatically generated: Thu Jan 02 16:54:47 GMT 2020

;declarations generated

(declare-fun oclExcludes ( Int Int) Bool)
(declare-fun Cardinality ( Int) Int)
(declare-fun class14_Class14BoolAttr2 ( Int) Bool)
(declare-fun type_dcbbfb67_ede8_4682_88ad_dfb7a5629263_Class2 ( Int) Bool)
(declare-fun obj_67015a0f_3815_45de_8b57_ebb6b0c495d1 ( Int) Int)
(declare-fun oclSelect ( Int Bool) Int)
(declare-fun type_dcbbfb67_ede8_4682_88ad_dfb7a5629263_Class36 ( Int) Bool)
(declare-fun type_dcbbfb67_ede8_4682_88ad_dfb7a5629263_Class29 ( Int) Bool)
(declare-fun Enum0 ( Int) Int)
(declare-fun type_dcbbfb67_ede8_4682_88ad_dfb7a5629263_Class27 ( Int) Bool)
(declare-fun Enum1 ( Int) Int)
(declare-fun Enum2 ( Int) Int)
(declare-fun container_ ( Int) Int)
(declare-fun type_dcbbfb67_ede8_4682_88ad_dfb7a5629263_Class56 ( Int) Bool)
(declare-fun oclIncludes ( Int Int) Bool)
(declare-fun type_dcbbfb67_ede8_4682_88ad_dfb7a5629263_Class14 ( Int) Bool)
(declare-fun ObjAt ( Int Int) Int)

;formula(s) generated
(assert (! (forall ((v Int)) (=> (and (and (and (and (and ( type_dcbbfb67_ede8_4682_88ad_dfb7a5629263_Class14 v )  ( type_dcbbfb67_ede8_4682_88ad_dfb7a5629263_Class56 v ) ) ( type_dcbbfb67_ede8_4682_88ad_dfb7a5629263_Class36 v ) ) ( type_dcbbfb67_ede8_4682_88ad_dfb7a5629263_Class27 v ) ) ( type_dcbbfb67_ede8_4682_88ad_dfb7a5629263_Class29 v ) ) ( type_dcbbfb67_ede8_4682_88ad_dfb7a5629263_Class2 v ) ) (not ( class14_Class14BoolAttr2 ( obj_67015a0f_3815_45de_8b57_ebb6b0c495d1 v )  )  ))):named l0))
(assert (exists ((o Int)) (and (and (and (and (and ( type_dcbbfb67_ede8_4682_88ad_dfb7a5629263_Class14 ( obj_67015a0f_3815_45de_8b57_ebb6b0c495d1 o )  )  ( type_dcbbfb67_ede8_4682_88ad_dfb7a5629263_Class56 ( obj_67015a0f_3815_45de_8b57_ebb6b0c495d1 o )  ) ) ( type_dcbbfb67_ede8_4682_88ad_dfb7a5629263_Class36 ( obj_67015a0f_3815_45de_8b57_ebb6b0c495d1 o )  ) ) ( type_dcbbfb67_ede8_4682_88ad_dfb7a5629263_Class27 ( obj_67015a0f_3815_45de_8b57_ebb6b0c495d1 o )  ) ) ( type_dcbbfb67_ede8_4682_88ad_dfb7a5629263_Class29 ( obj_67015a0f_3815_45de_8b57_ebb6b0c495d1 o )  ) ) ( type_dcbbfb67_ede8_4682_88ad_dfb7a5629263_Class2 ( obj_67015a0f_3815_45de_8b57_ebb6b0c495d1 o )  ) )))

 ;end of formula 